69 47 83 56 72 18 95 42 19 34 43 76 31 81 58 59 49 61 11 50 99 66 24 75 15 41 68 10 45 62 23 98 70 51 85 27 80 6 8 57 93 84 97 44 37 36 82 54 22 30 92 65 14 39 64 94 3 67 21 20 32 91 1 33 16 46 40 90 29 2 71 63 35 12 26 73 4 74 60 25 86 38 79 5 0 78 87 9 28 96 53 13 77 17 48 88 52 7 89 55 

